c A SAT instance generated from a 3-CNF formula that had 70 clauses and 10 variables
p cnf 10 70
8 -10 -4 0
-6 -9 8 0
-1 5 -9 0
-10 9 8 0
2 1 -7 0
5 3 10 0
4 -7 1 0
3 5 9 0
10 5 6 0
-1 -2 -8 0
8 1 -3 0
-1 -2 3 0
6 8 -9 0
-6 7 -4 0
-1 3 -2 0
3 -4 -2 0
4 -6 -10 0
-4 -3 -2 0
1 -6 3 0
6 -9 -2 0
-5 2 -9 0
-4 -7 -9 0
-5 -9 -6 0
10 8 4 0
-6 1 -10 0
-5 -4 -2 0
-5 6 7 0
3 5 6 0
-1 6 -3 0
-9 5 2 0
6 5 9 0
-8 1 2 0
2 -6 -3 0
4 -2 -5 0
6 -9 -7 0
-3 -7 5 0
-6 3 -10 0
8 10 4 0
10 -1 -7 0
-7 3 -4 0
-2 -9 4 0
5 10 -8 0
5 -2 -8 0
-5 -3 2 0
-1 -6 -3 0
-7 -10 -8 0
-10 3 6 0
4 -8 9 0
-6 7 -10 0
-6 -8 -3 0
1 -10 -2 0
-6 3 -2 0
-3 8 -2 0
6 -3 -10 0
-3 -9 -2 0
5 -6 3 0
-1 -9 3 0
2 -10 -7 0
-5 -10 -4 0
7 8 -2 0
8 10 -4 0
6 10 5 0
1 3 2 0
-2 10 -3 0
1 -7 -10 0
2 -7 -10 0
5 -8 -4 0
-10 -5 -9 0
5 3 9 0
8 -10 2 0
%
0

4 14 99 50 38 28 26 35 35 89
